1137.0 13960.0 4079.0 
1163.0 13185.0 2962.0 
1143.0 13223.0 2949.0 
1163.0 13153.0 3012.0 
1179.0 13083.0 2837.0 
1263.0 13377.0 2778.0 
1179.0 13083.0 2837.0 
1138.0 13386.0 3241.0 
1142.0 13348.0 3400.0 
1172.0 13431.0 2929.0 
1279.0 13324.0 2746.0 
1163.0 13153.0 3012.0 
1179.0 13147.0 2782.0 
1160.0 13181.0 3105.0 
1166.0 13134.0 2939.0 
1268.0 13137.0 2800.0 
1232.0 13144.0 2796.0 
1138.0 13572.0 3224.0 
1151.0 13215.0 3203.0 
1131.0 14027.0 3713.0 
1271.0 13398.0 2702.0 
